N=30;
start=[|
27, 0, 3, 26, 14, 0, 0, 17, 0, 0, 0, 0, 1, 2, 10, 20, 28, 11, 0, 0, 0, 30, 23, 0, 0, 13, 16, 15, 4, 12|
0, 0, 30, 19, 0, 11, 0, 0, 0, 13, 0, 0, 0, 23, 26, 0, 20, 14, 17, 0, 16, 29, 22, 9, 3, 5, 0, 21, 0, 7|
0, 12, 0, 0, 29, 5, 11, 20, 0, 17, 0, 1, 21, 9, 15, 2, 0, 22, 0, 0, 0, 28, 27, 14, 0, 19, 3, 13, 0, 0|
1, 20, 4, 18, 16, 13, 0, 0, 0, 23, 9, 14, 26, 0, 0, 0, 0, 0, 0, 10, 6, 0, 28, 0, 0, 0, 30, 7, 22, 11|
20, 0, 7, 0, 3, 24, 17, 14, 0, 11, 1, 28, 4, 8, 0, 0, 0, 0, 5, 18, 15, 0, 0, 19, 30, 0, 2, 23, 0, 0|
8, 10, 5, 13, 6, 0, 0, 0, 25, 16, 0, 0, 0, 18, 28, 1, 19, 17, 21, 11, 0, 0, 0, 0, 26, 0, 0, 14, 9, 23|
0, 8, 11, 0, 18, 0, 0, 0, 0, 12, 30, 0, 0, 14, 13, 9, 22, 0, 0, 19, 0, 24, 4, 2, 28, 17, 10, 16, 15, 0|
3, 26, 6, 2, 0, 0, 0, 27, 15, 21, 7, 0, 0, 0, 20, 0, 1, 16, 0, 23, 28, 22, 18, 0, 0, 12, 9, 25, 0, 0|
18, 1, 0, 0, 24, 0, 0, 0, 0, 29, 19, 25, 0, 10, 0, 0, 0, 0, 2, 0, 3, 4, 8, 13, 0, 28, 11, 26, 16, 22|
10, 19, 1, 0, 20, 6, 0, 24, 2, 0, 18, 0, 25, 0, 0, 7, 0, 0, 0, 5, 0, 0, 3, 0, 23, 9, 26, 0, 27, 13|
0, 0, 17, 6, 0, 18, 8, 7, 23, 0, 3, 0, 2, 1, 11, 4, 30, 0, 0, 0, 13, 0, 0, 28, 22, 0, 25, 0, 0, 14|
4, 22, 0, 0, 12, 0, 29, 10, 0, 1, 28, 0, 0, 16, 0, 5, 0, 21, 23, 9, 24, 15, 0, 26, 0, 2, 6, 0, 0, 8|
5, 2, 0, 0, 28, 0, 13, 19, 0, 0, 0, 29, 27, 11, 0, 15, 26, 0, 24, 17, 21, 0, 0, 0, 7, 22, 0, 10, 6, 9|
0, 0, 21, 25, 0, 15, 20, 0, 5, 0, 0, 0, 7, 0, 9, 0, 4, 26, 0, 27, 19, 11, 0, 16, 14, 29, 0, 30, 28, 0|
0, 29, 28, 0, 10, 1, 25, 0, 0, 30, 20, 24, 19, 0, 0, 3, 21, 23, 8, 0, 14, 0, 0, 0, 15, 0, 0, 22, 0, 26|
6, 0, 0, 0, 11, 0, 15, 0, 3, 2, 5, 23, 16, 0, 12, 27, 0, 10, 19, 0, 0, 0, 0, 0, 29, 14, 0, 17, 13, 20|
15, 30, 29, 23, 0, 0, 26, 0, 17, 0, 0, 21, 0, 6, 27, 0, 8, 18, 3, 13, 12, 0, 9, 5, 0, 0, 0, 0, 7, 16|
19, 16, 0, 0, 0, 0, 0, 26, 28, 0, 0, 9, 0, 0, 21, 23, 3, 7, 0, 22, 30, 14, 11, 27, 25, 0, 0, 1, 5, 24|
11, 13, 0, 29, 25, 12, 0, 28, 0, 26, 0, 0, 9, 22, 16, 18, 0, 0, 7, 3, 2, 0, 0, 15, 0, 24, 0, 0, 30, 4|
0, 0, 0, 22, 7, 4, 5, 6, 0, 0, 21, 0, 0, 13, 0, 19, 17, 27, 15, 0, 0, 23, 25, 0, 24, 16, 8, 0, 29, 18|
0, 4, 0, 21, 0, 2, 22, 13, 24, 0, 14, 11, 6, 0, 25, 0, 0, 3, 0, 7, 0, 0, 0, 0, 18, 1, 0, 27, 23, 29|
16, 0, 10, 20, 0, 22, 18, 30, 21, 0, 0, 17, 0, 0, 0, 0, 5, 1, 27, 14, 4, 0, 2, 0, 8, 0, 15, 24, 0, 0|
0, 0, 13, 0, 30, 21, 2, 0, 18, 0, 26, 0, 0, 28, 7, 14, 25, 0, 12, 15, 0, 27, 24, 3, 17, 0, 5, 0, 10, 0|
0, 0, 15, 24, 0, 9, 27, 1, 10, 22, 17, 6, 23, 0, 5, 0, 0, 4, 0, 12, 0, 3, 0, 20, 2, 0, 18, 0, 25, 0|
0, 0, 0, 30, 0, 0, 24, 15, 6, 14, 27, 20, 3, 0, 0, 13, 18, 0, 26, 0, 29, 9, 0, 7, 16, 23, 21, 0, 0, 0|
29, 6, 0, 5, 0, 26, 1, 8, 7, 0, 25, 10, 22, 0, 3, 0, 0, 0, 11, 0, 0, 21, 20, 23, 0, 0, 28, 18, 0, 0|
0, 11, 16, 0, 15, 25, 0, 4, 30, 10, 13, 7, 14, 27, 0, 0, 0, 0, 20, 29, 17, 0, 0, 0, 9, 18, 0, 3, 12, 0|
14, 28, 24, 0, 0, 0, 7, 0, 26, 27, 0, 5, 30, 12, 0, 6, 2, 0, 0, 20, 0, 18, 1, 10, 0, 11, 0, 0, 0, 15|
0, 0, 18, 8, 9, 27, 0, 0, 4, 6, 0, 0, 15, 29, 0, 21, 0, 24, 28, 0, 25, 19, 12, 30, 0, 0, 13, 0, 14, 0|
7, 18, 0, 1, 2, 0, 0, 25, 0, 0, 22, 12, 0, 24, 14, 26, 9, 28, 29, 0, 0, 5, 10, 21, 0, 0, 17, 0, 0, 0|];
